471
550
587
589
546
571
611
476
521
744
289
288
337
243
265
229
246
324
318
304
156
167
161
142
194
281
280
258
272
265
77
87
88
88
80
254
248
272
254
230
33
30
30
33
67
166
397
914
2091
4745
72
69
78
69
74
6
5
5
5
5
32
34
30
33
32
16
16
15
16
16
196
173
184
192
194
73
73
68
67
63
471
471
